
  22    4
  10   10   10   10

   0   0   0   0   0   2 2 4 
   7  10  10  10  10   4 12 9 5 3 
   9  10  10  10  10   3 8 7 6 
   9  10  10  10  10   2 12 5 
   5  10  10  10  10   2 13 6 
   8  10  10  10  10   3 14 11 10 
   5  10  10  10  10   2 14 10 
   2  10  10  10  10   2 14 13 
   3  10  10  10  10   2 15 13 
   1  10  10  10  10   3 21 20 15 
   6  10  10  10  10   3 21 20 15 
  10  10  10  10  10   3 21 20 15 
  10  10  10  10  10   3 21 20 16 
   1  10  10  10  10   4 21 20 19 18 
   2  10  10  10  10   1 16 
   8  10  10  10  10   1 17 
   4  10  10  10  10   2 19 18 
   4  10  10  10  10   1 22
   3  10  10  10  10   1 22
   7  10  10  10  10   1 22
   7  10  10  10  10   1 22
   0   0   0   0   0   0 
